100
32
25
4
22
16
14
13
17
7
14
31
19
14
29
30
1
10
30
32
19
14
10
5
7
30
27
32
28
8
14
32
30
14
23
16
21
15
32
2
24
29
14
25
17
5
7
22
27
32
6
6
3
4
14
20
17
25
32
17
12
5
22
23
8
17
9
26
10
28
26
1
20
25
25
2
20
10
23
18
27
21
23
26
3
8
26
18
28
1
20
32
28
25
31
17
22
17
32
8
31
8